32      4       
14      17      13      11      
0       0       0       0       0       2       2       3       
8       0       17      0       3       3       4       5       6       
3       12      0       0       5       3       5       6       7       
9       9       0       9       0       3       7       9       13      
6       0       15      0       10      7       9       11      12      13      15      19      23      
3       0       3       11      0       5       8       14      19      20      24      
1       14      0       0       5       11      10      11      12      14      15      18      19      21      22      23      24      
4       14      0       13      0       10      10      11      12      13      15      16      17      21      22      23      
7       7       0       0       11      8       10      14      16      17      18      20      21      24      
6       0       15      13      0       5       25      26      27      28      31      
5       0       10      13      0       5       25      26      27      28      31      
10      0       0       4       11      5       25      26      27      28      31      
9       0       7       0       11      5       25      26      27      28      31      
1       9       0       7       0       4       26      27      28      31      
10      14      0       0       11      4       25      26      27      28      
3       14      0       1       0       4       25      26      28      31      
4       12      0       0       2       4       25      26      27      28      
3       14      0       6       0       4       25      26      28      31      
6       0       0       12      11      4       26      27      30      31      
8       0       0       11      11      4       26      27      30      31      
8       0       17      13      0       3       25      26      27      
6       4       0       12      0       3       25      26      27      
2       0       17      8       0       2       26      28      
9       7       17      0       0       2       25      27      
4       0       9       0       11      2       29      30      
5       7       17      0       0       1       29      
4       0       8       0       5       1       29      
1       0       17      0       6       1       30      
10      10      0       13      0       1       32      
1       11      17      0       0       1       32      
10      0       5       0       11      1       32      
0       0       0       0       0       0       
